100
100
100
99
98
97
95
95
93
92
91
91
91
91
90
89
89
88
88
86
85
85
83
81
81
81
80
80
79
78
77
77
77
76
76
76
75
75
74
74
73
73
71
71
70
70
69
69
69
67
67
67
67
66
65
63
63
63
63
62
62
62
61
57
55
53
53
51
51
51
50
50
49
49
48
48
48
47
47
46
43
41
41
40
36
36
36
36
35
35
33
32
32
31
31
29
28
28
25
25
23
21
